certificates/rado_a14_c148_N49.cnf
c Rad2 upper bound instance: x1 + 14*x2 - x3 = 148, interval [1,49]
p cnf 49 338
1 7 11 0
-1 -7 -11 0
1 12 21 0
-1 -12 -21 0
1 13 35 0
-1 -13 -35 0
1 14 49 0
-1 -14 -49 0
2 8 11 0
-2 -8 -11 0
2 12 22 0
-2 -12 -22 0
2 13 36 0
-2 -13 -36 0
3 9 11 0
-3 -9 -11 0
3 12 23 0
-3 -12 -23 0
3 13 37 0
-3 -13 -37 0
4 10 11 0
-4 -10 -11 0
4 12 24 0
-4 -12 -24 0
4 13 38 0
-4 -13 -38 0
5 11 0
-5 -11 0
5 12 25 0
-5 -12 -25 0
5 13 39 0
-5 -13 -39 0
6 11 12 0
-6 -11 -12 0
6 12 26 0
-6 -12 -26 0
6 13 40 0
-6 -13 -40 0
7 11 13 0
-7 -11 -13 0
7 12 27 0
-7 -12 -27 0
7 13 41 0
-7 -13 -41 0
8 11 14 0
-8 -11 -14 0
8 12 28 0
-8 -12 -28 0
8 13 42 0
-8 -13 -42 0
1 9 10 0
-1 -9 -10 0
9 11 15 0
-9 -11 -15 0
9 12 29 0
-9 -12 -29 0
9 13 43 0
-9 -13 -43 0
2 10 0
-2 -10 0
10 11 16 0
-10 -11 -16 0
10 12 30 0
-10 -12 -30 0
10 13 44 0
-10 -13 -44 0
3 10 11 0
-3 -10 -11 0
11 17 0
-11 -17 0
11 12 31 0
-11 -12 -31 0
11 13 45 0
-11 -13 -45 0
4 10 12 0
-4 -10 -12 0
11 12 18 0
-11 -12 -18 0
12 32 0
-12 -32 0
12 13 46 0
-12 -13 -46 0
5 10 13 0
-5 -10 -13 0
11 13 19 0
-11 -13 -19 0
12 13 33 0
-12 -13 -33 0
13 47 0
-13 -47 0
6 10 14 0
-6 -10 -14 0
11 14 20 0
-11 -14 -20 0
12 14 34 0
-12 -14 -34 0
13 14 48 0
-13 -14 -48 0
7 10 15 0
-7 -10 -15 0
11 15 21 0
-11 -15 -21 0
12 15 35 0
-12 -15 -35 0
13 15 49 0
-13 -15 -49 0
8 10 16 0
-8 -10 -16 0
11 16 22 0
-11 -16 -22 0
12 16 36 0
-12 -16 -36 0
9 10 17 0
-9 -10 -17 0
11 17 23 0
-11 -17 -23 0
12 17 37 0
-12 -17 -37 0
10 18 0
-10 -18 0
11 18 24 0
-11 -18 -24 0
12 18 38 0
-12 -18 -38 0
10 11 19 0
-10 -11 -19 0
11 19 25 0
-11 -19 -25 0
12 19 39 0
-12 -19 -39 0
10 12 20 0
-10 -12 -20 0
11 20 26 0
-11 -20 -26 0
12 20 40 0
-12 -20 -40 0
10 13 21 0
-10 -13 -21 0
11 21 27 0
-11 -21 -27 0
12 21 41 0
-12 -21 -41 0
10 14 22 0
-10 -14 -22 0
11 22 28 0
-11 -22 -28 0
12 22 42 0
-12 -22 -42 0
1 9 23 0
-1 -9 -23 0
10 15 23 0
-10 -15 -23 0
11 23 29 0
-11 -23 -29 0
12 23 43 0
-12 -23 -43 0
2 9 24 0
-2 -9 -24 0
10 16 24 0
-10 -16 -24 0
11 24 30 0
-11 -24 -30 0
12 24 44 0
-12 -24 -44 0
3 9 25 0
-3 -9 -25 0
10 17 25 0
-10 -17 -25 0
11 25 31 0
-11 -25 -31 0
12 25 45 0
-12 -25 -45 0
4 9 26 0
-4 -9 -26 0
10 18 26 0
-10 -18 -26 0
11 26 32 0
-11 -26 -32 0
12 26 46 0
-12 -26 -46 0
5 9 27 0
-5 -9 -27 0
10 19 27 0
-10 -19 -27 0
11 27 33 0
-11 -27 -33 0
12 27 47 0
-12 -27 -47 0
6 9 28 0
-6 -9 -28 0
10 20 28 0
-10 -20 -28 0
11 28 34 0
-11 -28 -34 0
12 28 48 0
-12 -28 -48 0
7 9 29 0
-7 -9 -29 0
10 21 29 0
-10 -21 -29 0
11 29 35 0
-11 -29 -35 0
12 29 49 0
-12 -29 -49 0
8 9 30 0
-8 -9 -30 0
10 22 30 0
-10 -22 -30 0
11 30 36 0
-11 -30 -36 0
9 31 0
-9 -31 0
10 23 31 0
-10 -23 -31 0
11 31 37 0
-11 -31 -37 0
9 10 32 0
-9 -10 -32 0
10 24 32 0
-10 -24 -32 0
11 32 38 0
-11 -32 -38 0
9 11 33 0
-9 -11 -33 0
10 25 33 0
-10 -25 -33 0
11 33 39 0
-11 -33 -39 0
9 12 34 0
-9 -12 -34 0
10 26 34 0
-10 -26 -34 0
11 34 40 0
-11 -34 -40 0
9 13 35 0
-9 -13 -35 0
10 27 35 0
-10 -27 -35 0
11 35 41 0
-11 -35 -41 0
9 14 36 0
-9 -14 -36 0
10 28 36 0
-10 -28 -36 0
11 36 42 0
-11 -36 -42 0
1 8 37 0
-1 -8 -37 0
9 15 37 0
-9 -15 -37 0
10 29 37 0
-10 -29 -37 0
11 37 43 0
-11 -37 -43 0
2 8 38 0
-2 -8 -38 0
9 16 38 0
-9 -16 -38 0
10 30 38 0
-10 -30 -38 0
11 38 44 0
-11 -38 -44 0
3 8 39 0
-3 -8 -39 0
9 17 39 0
-9 -17 -39 0
10 31 39 0
-10 -31 -39 0
11 39 45 0
-11 -39 -45 0
4 8 40 0
-4 -8 -40 0
9 18 40 0
-9 -18 -40 0
10 32 40 0
-10 -32 -40 0
11 40 46 0
-11 -40 -46 0
5 8 41 0
-5 -8 -41 0
9 19 41 0
-9 -19 -41 0
10 33 41 0
-10 -33 -41 0
11 41 47 0
-11 -41 -47 0
6 8 42 0
-6 -8 -42 0
9 20 42 0
-9 -20 -42 0
10 34 42 0
-10 -34 -42 0
11 42 48 0
-11 -42 -48 0
7 8 43 0
-7 -8 -43 0
9 21 43 0
-9 -21 -43 0
10 35 43 0
-10 -35 -43 0
11 43 49 0
-11 -43 -49 0
8 44 0
-8 -44 0
9 22 44 0
-9 -22 -44 0
10 36 44 0
-10 -36 -44 0
8 9 45 0
-8 -9 -45 0
9 23 45 0
-9 -23 -45 0
10 37 45 0
-10 -37 -45 0
8 10 46 0
-8 -10 -46 0
9 24 46 0
-9 -24 -46 0
10 38 46 0
-10 -38 -46 0
8 11 47 0
-8 -11 -47 0
9 25 47 0
-9 -25 -47 0
10 39 47 0
-10 -39 -47 0
8 12 48 0
-8 -12 -48 0
9 26 48 0
-9 -26 -48 0
10 40 48 0
-10 -40 -48 0
8 13 49 0
-8 -13 -49 0
9 27 49 0
-9 -27 -49 0
10 41 49 0
-10 -41 -49 0
