certificates/rado_a14_c148_N49.drat
8 13 -48 -49 0
-47 -48 -49 0
-48 -49 0
d -47 -48 -49 0
47 -49 0
-44 -49 0
-49 0
13 44 0
44 48 0
48 0
-44 0
8 0
13 0
-12 0
-47 0
-14 0
-42 0
32 0
24 0
27 0
29 0
34 0
22 0
1 0
-10 0
-35 0
-37 0
2 0
18 0
41 0
39 0
36 0
6 0
30 0
20 0
4 0
43 0
15 0
45 0
17 0
0
